(set-info :Origin "This instance was generated by: BanditFuzz-- an RL fuzzer for SMT solvers" )
(set-info :Author "Joe Scott, Fed Mora, Vijay Ganesh" )
(set-info :Contact "Joe Scott, joseph.scott@uwaterloo.ca")
(set-logic QF_BV)
(declare-const bool_0 Bool)
(declare-const bool_1 Bool)
(declare-const bool_2 Bool)
(declare-const bool_3 Bool)
(declare-const bool_4 Bool)
(declare-const bv_0 (_ BitVec 32))
(declare-const bv_1 (_ BitVec 32))
(declare-const bv_2 (_ BitVec 32))
(declare-const bv_3 (_ BitVec 32))
(declare-const bv_4 (_ BitVec 32))
(assert (or (bvuge (bvsdiv #x26ad8cad  bv_4) (bvnor #x14ce1368  #x9e7afd47 )) (bvsge (bvurem #xef27dded  #x9e593b0a ) (bvsmod #xbeaff30a  bv_2))))
(assert (xor (bvule (bvurem #x69e4e726  bv_1) (bvmul #x4e2b6278  bv_4)) (bvsgt (bvand bv_3 #xbd1b438c ) (bvnand #xc55d6a23  #x66d401d4 ))))
(assert (bvsle (bvashr (bvlshr bv_0 bv_2) (bvashr bv_2 bv_1)) (bvnor (bvmul bv_2 #xcabefb6e ) (bvudiv #xbbf9d51b  #xde4378cf ))))
(assert (bvuge (bvxnor (bvsub bv_3 #x1a723592 ) (bvor bv_4 bv_3)) (bvlshr (bvadd #x46719326  bv_2) (bvsmod bv_1 bv_4))))
(assert (bvugt (bvxor (bvmul #x6d19ac61  #x18f9dd56 ) (bvadd #x83e56dcf  #x6e775ea9 )) (bvsub (bvsdiv bv_3 #x17b58c6a ) (bvnor bv_0 #x2d5d06f0 ))))
(check-sat)
(exit)
